n = 20
Q1 = [0 0 31 0 39 22 0 40 0 32 48 47 38 0 0 14 0 0 14 0; 0 0 23 49 0 10 12 0 13 0 19 0 42 43 0 0 24 21 30 29; 0 0 0 0 33 40 42 40 8 44 6 0 15 34 14 18 24 12 0 0; 0 0 0 0 0 50 12 37 40 27 32 41 25 28 12 30 31 9 0 17; 0 0 0 0 0 16 34 13 0 0 14 25 21 49 0 16 20 31 36 14; 0 0 0 0 0 0 0 32 28 35 38 50 27 0 9 34 0 22 21 0; 0 0 0 0 0 0 0 8 40 18 16 7 0 6 0 0 50 41 35 16; 0 0 0 0 0 0 0 0 50 32 43 38 30 16 0 0 0 38 11 26; 0 0 0 0 0 0 0 0 0 12 42 47 34 26 50 29 0 12 5 27; 0 0 0 0 0 0 0 0 0 0 38 41 0 48 0 0 46 40 41 17; 0 0 0 0 0 0 0 0 0 0 0 25 31 36 32 0 22 0 32 0; 0 0 0 0 0 0 0 0 0 0 0 0 23 6 8 0 17 20 35 0; 0 0 0 0 0 0 0 0 0 0 0 0 0 17 0 42 0 44 0 0; 0 0 0 0 0 0 0 0 0 0 0 0 0 0 38 47 50 40 41 0; 0 0 0 0 0 0 0 0 0 0 0 0 0 0 0 0 0 49 46 45; 0 0 0 0 0 0 0 0 0 0 0 0 0 0 0 0 0 44 41 0; 0 0 0 0 0 0 0 0 0 0 0 0 0 0 0 0 0 22 41 46; 0 0 0 0 0 0 0 0 0 0 0 0 0 0 0 0 0 0 15 7; 0 0 0 0 0 0 0 0 0 0 0 0 0 0 0 0 0 0 0 21; 0 0 0 0 0 0 0 0 0 0 0 0 0 0 0 0 0 0 0 0]
Q2 = [0.0 0.0 16.0 0.0 8.0 36.0 0.0 8.0 0.0 13.0 1.0 2.0 2.0 0.0 0.0 39.0 0.0 0.0 47.0 0.0; 0.0 0.0 35.0 1.0 0.0 43.0 50.0 0.0 38.0 0.0 46.0 0.0 4.0 1.0 0.0 0.0 27.0 43.0 4.0 12.0; 0.0 0.0 0.0 0.0 11.0 4.0 0.0 3.0 43.0 2.0 47.0 0.0 50.0 9.0 45.0 37.0 41.0 45.0 0.0 0.0; 0.0 0.0 0.0 0.0 0.0 0.0 46.0 13.0 6.0 2.0 10.0 9.0 17.0 20.0 43.0 8.0 5.0 41.0 0.0 42.0; 0.0 0.0 0.0 0.0 0.0 45.0 6.0 37.0 0.0 0.0 47.0 10.0 31.0 1.0 0.0 44.0 35.0 3.0 3.0 38.0; 0.0 0.0 0.0 0.0 0.0 0.0 0.0 3.0 17.0 11.0 3.0 0.0 14.0 0.0 50.0 7.0 0.0 30.0 32.0 0.0; 0.0 0.0 0.0 0.0 0.0 0.0 0.0 47.0 0.0 36.0 36.0 43.0 0.0 45.0 0.0 0.0 0.0 3.0 15.0 42.0; 0.0 0.0 0.0 0.0 0.0 0.0 0.0 0.0 0.0 12.0 3.0 1.0 20.0 44.0 0.0 0.0 0.0 2.0 40.0 22.0; 0.0 0.0 0.0 0.0 0.0 0.0 0.0 0.0 0.0 45.0 0.0 1.0 15.0 13.0 0.0 11.0 0.0 41.0 49.0 14.0; 0.0 0.0 0.0 0.0 0.0 0.0 0.0 0.0 0.0 0.0 5.0 2.0 0.0 0.0 0.0 0.0 0.0 6.0 6.0 43.0; 0.0 0.0 0.0 0.0 0.0 0.0 0.0 0.0 0.0 0.0 0.0 20.0 19.0 4.0 9.0 0.0 34.0 0.0 10.0 0.0; 0.0 0.0 0.0 0.0 0.0 0.0 0.0 0.0 0.0 0.0 0.0 0.0 39.0 50.0 48.0 0.0 39.0 50.0 14.0 0.0; 0.0 0.0 0.0 0.0 0.0 0.0 0.0 0.0 0.0 0.0 0.0 0.0 0.0 38.0 0.0 5.0 0.0 1.0 0.0 0.0; 0.0 0.0 0.0 0.0 0.0 0.0 0.0 0.0 0.0 0.0 0.0 0.0 0.0 0.0 2.0 0.0 0.0 1.0 2.0 0.0; 0.0 0.0 0.0 0.0 0.0 0.0 0.0 0.0 0.0 0.0 0.0 0.0 0.0 0.0 0.0 0.0 0.0 1.0 0.0 4.0; 0.0 0.0 0.0 0.0 0.0 0.0 0.0 0.0 0.0 0.0 0.0 0.0 0.0 0.0 0.0 0.0 0.0 6.0 1.0 0.0; 0.0 0.0 0.0 0.0 0.0 0.0 0.0 0.0 0.0 0.0 0.0 0.0 0.0 0.0 0.0 0.0 0.0 35.0 8.0 4.0; 0.0 0.0 0.0 0.0 0.0 0.0 0.0 0.0 0.0 0.0 0.0 0.0 0.0 0.0 0.0 0.0 0.0 0.0 41.0 49.0; 0.0 0.0 0.0 0.0 0.0 0.0 0.0 0.0 0.0 0.0 0.0 0.0 0.0 0.0 0.0 0.0 0.0 0.0 0.0 29.0; 0.0 0.0 0.0 0.0 0.0 0.0 0.0 0.0 0.0 0.0 0.0 0.0 0.0 0.0 0.0 0.0 0.0 0.0 0.0 0.0]
Q3 = [0 70 0 70 9 10 70 13 70 9 21 21 22 70 70 8 70 70 5 70; 0 0 5 6 70 10 4 70 8 70 4 70 20 12 70 70 16 4 46 9; 0 0 0 70 22 13 19 3 7 23 4 70 2 11 4 0 3 3 70 70; 0 0 0 0 70 0 10 11 21 63 28 18 5 21 0 8 33 3 70 7; 0 0 0 0 0 1 19 14 70 70 2 8 18 13 70 4 8 44 11 14; 0 0 0 0 0 0 70 27 15 7 11 13 1 70 2 4 70 12 11 70; 0 0 0 0 0 0 0 9 0 0 4 7 70 15 70 70 4 26 1 3; 0 0 0 0 0 0 0 0 18 6 10 7 20 10 70 70 70 29 15 6; 0 0 0 0 0 0 0 0 0 0 11 8 0 28 11 30 70 7 11 7; 0 0 0 0 0 0 0 0 0 0 25 17 70 17 70 70 8 22 14 6; 0 0 0 0 0 0 0 0 0 0 0 7 14 18 16 70 10 70 21 70; 0 0 0 0 0 0 0 0 0 0 0 0 7 12 4 70 1 0 15 70; 0 0 0 0 0 0 0 0 0 0 0 0 0 12 70 16 70 10 70 70; 0 0 0 0 0 0 0 0 0 0 0 0 0 0 9 14 9 8 19 70; 0 0 0 0 0 0 0 0 0 0 0 0 0 0 0 70 70 13 18 6; 0 0 0 0 0 0 0 0 0 0 0 0 0 0 0 0 70 17 23 70; 0 0 0 0 0 0 0 0 0 0 0 0 0 0 0 0 0 10 0 0; 0 0 0 0 0 0 0 0 0 0 0 0 0 0 0 0 0 0 9 5; 0 0 0 0 0 0 0 0 0 0 0 0 0 0 0 0 0 0 0 19; 0 0 0 0 0 0 0 0 0 0 0 0 0 0 0 0 0 0 0 0]
